**
** Heading +++++++++++++++++++++++++++++++++++++++++++++++++
**
*Heading
Hash: o4g8ZYh8, Date: 10/05/2026, Unit system: MM_TON_S_C
**
** Nodes +++++++++++++++++++++++++++++++++++++++++++++++++++
**
*Node
1, 0.00000000E+000, 2.50000000E+001
2, 2.50000000E+001, 2.50000000E+001
3, 0.00000000E+000, 0.00000000E+000
4, 2.50000000E+001, 0.00000000E+000
5, 5.00000000E+001, 2.50000000E+001
6, 5.00000000E+001, 0.00000000E+000
7, 7.50000000E+001, 2.50000000E+001
8, 7.50000000E+001, 0.00000000E+000
9, 1.00000000E+002, 2.50000000E+001
10, 1.00000000E+002, 0.00000000E+000
11, 7.50000000E+001, 5.00000000E+001
12, 1.00000000E+002, 5.00000000E+001
13, 5.00000000E+001, 5.00000000E+001
14, 2.50000000E+001, 5.00000000E+001
15, 0.00000000E+000, 5.00000000E+001
16, 0.00000000E+000, 7.50000000E+001
17, 2.50000000E+001, 7.50000000E+001
18, 5.00000000E+001, 7.50000000E+001
19, 7.50000000E+001, 7.50000000E+001
20, 1.00000000E+002, 7.50000000E+001
21, 7.50000000E+001, 1.00000000E+002
22, 1.00000000E+002, 1.00000000E+002
23, 5.00000000E+001, 1.00000000E+002
24, 2.50000000E+001, 1.00000000E+002
25, 0.00000000E+000, 1.00000000E+002
26, 0.00000000E+000, 1.25000000E+002
27, 2.50000000E+001, 1.25000000E+002
28, 5.00000000E+001, 1.25000000E+002
29, 7.50000000E+001, 1.25000000E+002
30, 1.00000000E+002, 1.25000000E+002
31, 7.50000000E+001, 1.50000000E+002
32, 1.00000000E+002, 1.50000000E+002
33, 5.00000000E+001, 1.50000000E+002
34, 2.50000000E+001, 1.50000000E+002
35, 0.00000000E+000, 1.50000000E+002
36, 0.00000000E+000, 1.75000000E+002
37, 2.50000000E+001, 1.75000000E+002
38, 5.00000000E+001, 1.75000000E+002
39, 7.50000000E+001, 1.75000000E+002
40, 1.00000000E+002, 1.75000000E+002
41, 1.00000000E+002, 2.00000000E+002
42, 7.50000000E+001, 2.00000000E+002
43, 5.00000000E+001, 2.00000000E+002
44, 2.50000000E+001, 2.00000000E+002
45, 0.00000000E+000, 2.00000000E+002
46, 1.25000000E+001, 2.50000000E+001
47, 6.25000000E+000, 2.50000000E+001
48, 1.87500000E+001, 2.50000000E+001
49, 0.00000000E+000, 1.25000000E+001
50, 0.00000000E+000, 1.87500000E+001
51, 0.00000000E+000, 6.25000000E+000
52, 1.25000000E+001, 0.00000000E+000
53, 6.25000000E+000, 0.00000000E+000
54, 1.87500000E+001, 0.00000000E+000
55, 2.50000000E+001, 1.25000000E+001
56, 2.50000000E+001, 1.87500000E+001
57, 2.50000000E+001, 6.25000000E+000
58, 3.75000000E+001, 2.50000000E+001
59, 3.12500000E+001, 2.50000000E+001
60, 4.37500000E+001, 2.50000000E+001
61, 3.75000000E+001, 0.00000000E+000
62, 3.12500000E+001, 0.00000000E+000
63, 4.37500000E+001, 0.00000000E+000
64, 5.00000000E+001, 1.25000000E+001
65, 5.00000000E+001, 1.87500000E+001
66, 5.00000000E+001, 6.25000000E+000
67, 6.25000000E+001, 2.50000000E+001
68, 5.62500000E+001, 2.50000000E+001
69, 6.87500000E+001, 2.50000000E+001
70, 6.25000000E+001, 0.00000000E+000
71, 5.62500000E+001, 0.00000000E+000
72, 6.87500000E+001, 0.00000000E+000
73, 7.50000000E+001, 1.25000000E+001
74, 7.50000000E+001, 1.87500000E+001
75, 7.50000000E+001, 6.25000000E+000
76, 8.75000000E+001, 2.50000000E+001
77, 8.12500000E+001, 2.50000000E+001
78, 9.37500000E+001, 2.50000000E+001
79, 8.75000000E+001, 0.00000000E+000
80, 8.12500000E+001, 0.00000000E+000
81, 9.37500000E+001, 0.00000000E+000
82, 1.00000000E+002, 1.25000000E+001
83, 1.00000000E+002, 6.25000000E+000
84, 1.00000000E+002, 1.87500000E+001
85, 8.75000000E+001, 5.00000000E+001
86, 8.12500000E+001, 5.00000000E+001
87, 9.37500000E+001, 5.00000000E+001
88, 7.50000000E+001, 3.75000000E+001
89, 7.50000000E+001, 4.37500000E+001
90, 7.50000000E+001, 3.12500000E+001
91, 1.00000000E+002, 3.75000000E+001
92, 1.00000000E+002, 3.12500000E+001
93, 1.00000000E+002, 4.37500000E+001
94, 6.25000000E+001, 5.00000000E+001
95, 5.62500000E+001, 5.00000000E+001
96, 6.87500000E+001, 5.00000000E+001
97, 5.00000000E+001, 3.75000000E+001
98, 5.00000000E+001, 4.37500000E+001
99, 5.00000000E+001, 3.12500000E+001
100, 3.75000000E+001, 5.00000000E+001
101, 3.12500000E+001, 5.00000000E+001
102, 4.37500000E+001, 5.00000000E+001
103, 2.50000000E+001, 3.75000000E+001
104, 2.50000000E+001, 4.37500000E+001
105, 2.50000000E+001, 3.12500000E+001
106, 1.25000000E+001, 5.00000000E+001
107, 6.25000000E+000, 5.00000000E+001
108, 1.87500000E+001, 5.00000000E+001
109, 0.00000000E+000, 3.75000000E+001
110, 0.00000000E+000, 4.37500000E+001
111, 0.00000000E+000, 3.12500000E+001
112, 1.25000000E+001, 7.50000000E+001
113, 6.25000000E+000, 7.50000000E+001
114, 1.87500000E+001, 7.50000000E+001
115, 0.00000000E+000, 6.25000000E+001
116, 0.00000000E+000, 6.87500000E+001
117, 0.00000000E+000, 5.62500000E+001
118, 2.50000000E+001, 6.25000000E+001
119, 2.50000000E+001, 6.87500000E+001
120, 2.50000000E+001, 5.62500000E+001
121, 3.75000000E+001, 7.50000000E+001
122, 3.12500000E+001, 7.50000000E+001
123, 4.37500000E+001, 7.50000000E+001
124, 5.00000000E+001, 6.25000000E+001
125, 5.00000000E+001, 6.87500000E+001
126, 5.00000000E+001, 5.62500000E+001
127, 6.25000000E+001, 7.50000000E+001
128, 5.62500000E+001, 7.50000000E+001
129, 6.87500000E+001, 7.50000000E+001
130, 7.50000000E+001, 6.25000000E+001
131, 7.50000000E+001, 6.87500000E+001
132, 7.50000000E+001, 5.62500000E+001
133, 8.75000000E+001, 7.50000000E+001
134, 8.12500000E+001, 7.50000000E+001
135, 9.37500000E+001, 7.50000000E+001
136, 1.00000000E+002, 6.25000000E+001
137, 1.00000000E+002, 5.62500000E+001
138, 1.00000000E+002, 6.87500000E+001
139, 8.75000000E+001, 1.00000000E+002
140, 8.12500000E+001, 1.00000000E+002
141, 9.37500000E+001, 1.00000000E+002
142, 7.50000000E+001, 8.75000000E+001
143, 7.50000000E+001, 9.37500000E+001
144, 7.50000000E+001, 8.12500000E+001
145, 1.00000000E+002, 8.75000000E+001
146, 1.00000000E+002, 8.12500000E+001
147, 1.00000000E+002, 9.37500000E+001
148, 6.25000000E+001, 1.00000000E+002
149, 5.62500000E+001, 1.00000000E+002
150, 6.87500000E+001, 1.00000000E+002
151, 5.00000000E+001, 8.75000000E+001
152, 5.00000000E+001, 9.37500000E+001
153, 5.00000000E+001, 8.12500000E+001
154, 3.75000000E+001, 1.00000000E+002
155, 3.12500000E+001, 1.00000000E+002
156, 4.37500000E+001, 1.00000000E+002
157, 2.50000000E+001, 8.75000000E+001
158, 2.50000000E+001, 9.37500000E+001
159, 2.50000000E+001, 8.12500000E+001
160, 1.25000000E+001, 1.00000000E+002
161, 6.25000000E+000, 1.00000000E+002
162, 1.87500000E+001, 1.00000000E+002
163, 0.00000000E+000, 8.75000000E+001
164, 0.00000000E+000, 9.37500000E+001
165, 0.00000000E+000, 8.12500000E+001
166, 1.25000000E+001, 1.25000000E+002
167, 6.25000000E+000, 1.25000000E+002
168, 1.87500000E+001, 1.25000000E+002
169, 0.00000000E+000, 1.12500000E+002
170, 0.00000000E+000, 1.18750000E+002
171, 0.00000000E+000, 1.06250000E+002
172, 2.50000000E+001, 1.12500000E+002
173, 2.50000000E+001, 1.18750000E+002
174, 2.50000000E+001, 1.06250000E+002
175, 3.75000000E+001, 1.25000000E+002
176, 3.12500000E+001, 1.25000000E+002
177, 4.37500000E+001, 1.25000000E+002
178, 5.00000000E+001, 1.12500000E+002
179, 5.00000000E+001, 1.18750000E+002
180, 5.00000000E+001, 1.06250000E+002
181, 6.25000000E+001, 1.25000000E+002
182, 5.62500000E+001, 1.25000000E+002
183, 6.87500000E+001, 1.25000000E+002
184, 7.50000000E+001, 1.12500000E+002
185, 7.50000000E+001, 1.18750000E+002
186, 7.50000000E+001, 1.06250000E+002
187, 8.75000000E+001, 1.25000000E+002
188, 8.12500000E+001, 1.25000000E+002
189, 9.37500000E+001, 1.25000000E+002
190, 1.00000000E+002, 1.12500000E+002
191, 1.00000000E+002, 1.06250000E+002
192, 1.00000000E+002, 1.18750000E+002
193, 8.75000000E+001, 1.50000000E+002
194, 8.12500000E+001, 1.50000000E+002
195, 9.37500000E+001, 1.50000000E+002
196, 7.50000000E+001, 1.37500000E+002
197, 7.50000000E+001, 1.43750000E+002
198, 7.50000000E+001, 1.31250000E+002
199, 1.00000000E+002, 1.37500000E+002
200, 1.00000000E+002, 1.31250000E+002
201, 1.00000000E+002, 1.43750000E+002
202, 6.25000000E+001, 1.50000000E+002
203, 5.62500000E+001, 1.50000000E+002
204, 6.87500000E+001, 1.50000000E+002
205, 5.00000000E+001, 1.37500000E+002
206, 5.00000000E+001, 1.43750000E+002
207, 5.00000000E+001, 1.31250000E+002
208, 3.75000000E+001, 1.50000000E+002
209, 3.12500000E+001, 1.50000000E+002
210, 4.37500000E+001, 1.50000000E+002
211, 2.50000000E+001, 1.37500000E+002
212, 2.50000000E+001, 1.43750000E+002
213, 2.50000000E+001, 1.31250000E+002
214, 1.25000000E+001, 1.50000000E+002
215, 6.25000000E+000, 1.50000000E+002
216, 1.87500000E+001, 1.50000000E+002
217, 0.00000000E+000, 1.37500000E+002
218, 0.00000000E+000, 1.43750000E+002
219, 0.00000000E+000, 1.31250000E+002
220, 1.25000000E+001, 1.75000000E+002
221, 6.25000000E+000, 1.75000000E+002
222, 1.87500000E+001, 1.75000000E+002
223, 0.00000000E+000, 1.62500000E+002
224, 0.00000000E+000, 1.68750000E+002
225, 0.00000000E+000, 1.56250000E+002
226, 2.50000000E+001, 1.62500000E+002
227, 2.50000000E+001, 1.68750000E+002
228, 2.50000000E+001, 1.56250000E+002
229, 3.75000000E+001, 1.75000000E+002
230, 3.12500000E+001, 1.75000000E+002
231, 4.37500000E+001, 1.75000000E+002
232, 5.00000000E+001, 1.62500000E+002
233, 5.00000000E+001, 1.68750000E+002
234, 5.00000000E+001, 1.56250000E+002
235, 6.25000000E+001, 1.75000000E+002
236, 5.62500000E+001, 1.75000000E+002
237, 6.87500000E+001, 1.75000000E+002
238, 7.50000000E+001, 1.62500000E+002
239, 7.50000000E+001, 1.68750000E+002
240, 7.50000000E+001, 1.56250000E+002
241, 8.75000000E+001, 1.75000000E+002
242, 8.12500000E+001, 1.75000000E+002
243, 9.37500000E+001, 1.75000000E+002
244, 1.00000000E+002, 1.62500000E+002
245, 1.00000000E+002, 1.56250000E+002
246, 1.00000000E+002, 1.68750000E+002
247, 8.75000000E+001, 2.00000000E+002
248, 9.37500000E+001, 2.00000000E+002
249, 8.12500000E+001, 2.00000000E+002
250, 7.50000000E+001, 1.87500000E+002
251, 7.50000000E+001, 1.93750000E+002
252, 7.50000000E+001, 1.81250000E+002
253, 1.00000000E+002, 1.87500000E+002
254, 1.00000000E+002, 1.81250000E+002
255, 1.00000000E+002, 1.93750000E+002
256, 6.25000000E+001, 2.00000000E+002
257, 6.87500000E+001, 2.00000000E+002
258, 5.62500000E+001, 2.00000000E+002
259, 5.00000000E+001, 1.87500000E+002
260, 5.00000000E+001, 1.93750000E+002
261, 5.00000000E+001, 1.81250000E+002
262, 3.75000000E+001, 2.00000000E+002
263, 4.37500000E+001, 2.00000000E+002
264, 3.12500000E+001, 2.00000000E+002
265, 2.50000000E+001, 1.87500000E+002
266, 2.50000000E+001, 1.93750000E+002
267, 2.50000000E+001, 1.81250000E+002
268, 1.25000000E+001, 2.00000000E+002
269, 1.87500000E+001, 2.00000000E+002
270, 6.25000000E+000, 2.00000000E+002
271, 0.00000000E+000, 1.87500000E+002
272, 0.00000000E+000, 1.93750000E+002
273, 0.00000000E+000, 1.81250000E+002
274, 1.25000000E+001, 1.25000000E+001
275, 6.25000000E+000, 1.25000000E+001
276, 1.25000000E+001, 1.87500000E+001
277, 1.25000000E+001, 6.25000000E+000
278, 1.87500000E+001, 1.25000000E+001
279, 3.75000000E+001, 1.25000000E+001
280, 3.12500000E+001, 1.25000000E+001
281, 3.75000000E+001, 1.87500000E+001
282, 3.75000000E+001, 6.25000000E+000
283, 4.37500000E+001, 1.25000000E+001
284, 6.25000000E+001, 1.25000000E+001
285, 5.62500000E+001, 1.25000000E+001
286, 6.25000000E+001, 1.87500000E+001
287, 6.25000000E+001, 6.25000000E+000
288, 6.87500000E+001, 1.25000000E+001
289, 8.75000000E+001, 1.25000000E+001
290, 8.12500000E+001, 1.25000000E+001
291, 8.75000000E+001, 1.87500000E+001
292, 8.75000000E+001, 6.25000000E+000
293, 9.37500000E+001, 1.25000000E+001
294, 8.75000000E+001, 3.75000000E+001
295, 8.12500000E+001, 3.75000000E+001
296, 8.75000000E+001, 4.37500000E+001
297, 8.75000000E+001, 3.12500000E+001
298, 9.37500000E+001, 3.75000000E+001
299, 6.25000000E+001, 3.75000000E+001
300, 5.62500000E+001, 3.75000000E+001
301, 6.25000000E+001, 4.37500000E+001
302, 6.25000000E+001, 3.12500000E+001
303, 6.87500000E+001, 3.75000000E+001
304, 3.75000000E+001, 3.75000000E+001
305, 3.12500000E+001, 3.75000000E+001
306, 3.75000000E+001, 4.37500000E+001
307, 3.75000000E+001, 3.12500000E+001
308, 4.37500000E+001, 3.75000000E+001
309, 1.25000000E+001, 3.75000000E+001
310, 6.25000000E+000, 3.75000000E+001
311, 1.25000000E+001, 4.37500000E+001
312, 1.25000000E+001, 3.12500000E+001
313, 1.87500000E+001, 3.75000000E+001
314, 1.25000000E+001, 6.25000000E+001
315, 6.25000000E+000, 6.25000000E+001
316, 1.25000000E+001, 6.87500000E+001
317, 1.25000000E+001, 5.62500000E+001
318, 1.87500000E+001, 6.25000000E+001
319, 3.75000000E+001, 6.25000000E+001
320, 3.12500000E+001, 6.25000000E+001
321, 3.75000000E+001, 6.87500000E+001
322, 3.75000000E+001, 5.62500000E+001
323, 4.37500000E+001, 6.25000000E+001
324, 6.25000000E+001, 6.25000000E+001
325, 5.62500000E+001, 6.25000000E+001
326, 6.25000000E+001, 6.87500000E+001
327, 6.25000000E+001, 5.62500000E+001
328, 6.87500000E+001, 6.25000000E+001
329, 8.75000000E+001, 6.25000000E+001
330, 8.12500000E+001, 6.25000000E+001
331, 8.75000000E+001, 6.87500000E+001
332, 8.75000000E+001, 5.62500000E+001
333, 9.37500000E+001, 6.25000000E+001
334, 8.75000000E+001, 8.75000000E+001
335, 8.12500000E+001, 8.75000000E+001
336, 8.75000000E+001, 9.37500000E+001
337, 8.75000000E+001, 8.12500000E+001
338, 9.37500000E+001, 8.75000000E+001
339, 6.25000000E+001, 8.75000000E+001
340, 5.62500000E+001, 8.75000000E+001
341, 6.25000000E+001, 9.37500000E+001
342, 6.25000000E+001, 8.12500000E+001
343, 6.87500000E+001, 8.75000000E+001
344, 3.75000000E+001, 8.75000000E+001
345, 3.12500000E+001, 8.75000000E+001
346, 3.75000000E+001, 9.37500000E+001
347, 3.75000000E+001, 8.12500000E+001
348, 4.37500000E+001, 8.75000000E+001
349, 1.25000000E+001, 8.75000000E+001
350, 6.25000000E+000, 8.75000000E+001
351, 1.25000000E+001, 9.37500000E+001
352, 1.25000000E+001, 8.12500000E+001
353, 1.87500000E+001, 8.75000000E+001
354, 1.25000000E+001, 1.12500000E+002
355, 6.25000000E+000, 1.12500000E+002
356, 1.25000000E+001, 1.18750000E+002
357, 1.25000000E+001, 1.06250000E+002
358, 1.87500000E+001, 1.12500000E+002
359, 3.75000000E+001, 1.12500000E+002
360, 3.12500000E+001, 1.12500000E+002
361, 3.75000000E+001, 1.18750000E+002
362, 3.75000000E+001, 1.06250000E+002
363, 4.37500000E+001, 1.12500000E+002
364, 6.25000000E+001, 1.12500000E+002
365, 5.62500000E+001, 1.12500000E+002
366, 6.25000000E+001, 1.18750000E+002
367, 6.25000000E+001, 1.06250000E+002
368, 6.87500000E+001, 1.12500000E+002
369, 8.75000000E+001, 1.12500000E+002
370, 8.12500000E+001, 1.12500000E+002
371, 8.75000000E+001, 1.18750000E+002
372, 8.75000000E+001, 1.06250000E+002
373, 9.37500000E+001, 1.12500000E+002
374, 8.75000000E+001, 1.37500000E+002
375, 8.12500000E+001, 1.37500000E+002
376, 8.75000000E+001, 1.43750000E+002
377, 8.75000000E+001, 1.31250000E+002
378, 9.37500000E+001, 1.37500000E+002
379, 6.25000000E+001, 1.37500000E+002
380, 5.62500000E+001, 1.37500000E+002
381, 6.25000000E+001, 1.43750000E+002
382, 6.25000000E+001, 1.31250000E+002
383, 6.87500000E+001, 1.37500000E+002
384, 3.75000000E+001, 1.37500000E+002
385, 3.12500000E+001, 1.37500000E+002
386, 3.75000000E+001, 1.43750000E+002
387, 3.75000000E+001, 1.31250000E+002
388, 4.37500000E+001, 1.37500000E+002
389, 1.25000000E+001, 1.37500000E+002
390, 6.25000000E+000, 1.37500000E+002
391, 1.25000000E+001, 1.43750000E+002
392, 1.25000000E+001, 1.31250000E+002
393, 1.87500000E+001, 1.37500000E+002
394, 1.25000000E+001, 1.62500000E+002
395, 6.25000000E+000, 1.62500000E+002
396, 1.25000000E+001, 1.68750000E+002
397, 1.25000000E+001, 1.56250000E+002
398, 1.87500000E+001, 1.62500000E+002
399, 3.75000000E+001, 1.62500000E+002
400, 3.12500000E+001, 1.62500000E+002
401, 3.75000000E+001, 1.68750000E+002
402, 3.75000000E+001, 1.56250000E+002
403, 4.37500000E+001, 1.62500000E+002
404, 6.25000000E+001, 1.62500000E+002
405, 5.62500000E+001, 1.62500000E+002
406, 6.25000000E+001, 1.68750000E+002
407, 6.25000000E+001, 1.56250000E+002
408, 6.87500000E+001, 1.62500000E+002
409, 8.75000000E+001, 1.62500000E+002
410, 8.12500000E+001, 1.62500000E+002
411, 8.75000000E+001, 1.68750000E+002
412, 8.75000000E+001, 1.56250000E+002
413, 9.37500000E+001, 1.62500000E+002
414, 8.75000000E+001, 1.87500000E+002
415, 8.75000000E+001, 1.93750000E+002
416, 9.37500000E+001, 1.87500000E+002
417, 8.75000000E+001, 1.81250000E+002
418, 8.12500000E+001, 1.87500000E+002
419, 6.25000000E+001, 1.87500000E+002
420, 6.25000000E+001, 1.93750000E+002
421, 6.87500000E+001, 1.87500000E+002
422, 6.25000000E+001, 1.81250000E+002
423, 5.62500000E+001, 1.87500000E+002
424, 3.75000000E+001, 1.87500000E+002
425, 3.75000000E+001, 1.93750000E+002
426, 4.37500000E+001, 1.87500000E+002
427, 3.75000000E+001, 1.81250000E+002
428, 3.12500000E+001, 1.87500000E+002
429, 1.25000000E+001, 1.87500000E+002
430, 1.25000000E+001, 1.93750000E+002
431, 1.87500000E+001, 1.87500000E+002
432, 1.25000000E+001, 1.81250000E+002
433, 6.25000000E+000, 1.87500000E+002
**
** Elements ++++++++++++++++++++++++++++++++++++++++++++++++
**
*Element, Type=CPS8, Elset=Compound-1
1, 1, 49, 274, 46, 50, 275, 276, 47
2, 49, 3, 52, 274, 51, 53, 277, 275
3, 46, 274, 55, 2, 276, 278, 56, 48
4, 274, 52, 4, 55, 277, 54, 57, 278
5, 2, 55, 279, 58, 56, 280, 281, 59
6, 55, 4, 61, 279, 57, 62, 282, 280
7, 58, 279, 64, 5, 281, 283, 65, 60
8, 279, 61, 6, 64, 282, 63, 66, 283
9, 5, 64, 284, 67, 65, 285, 286, 68
10, 64, 6, 70, 284, 66, 71, 287, 285
11, 67, 284, 73, 7, 286, 288, 74, 69
12, 284, 70, 8, 73, 287, 72, 75, 288
13, 7, 73, 289, 76, 74, 290, 291, 77
14, 73, 8, 79, 289, 75, 80, 292, 290
15, 76, 289, 82, 9, 291, 293, 84, 78
16, 289, 79, 10, 82, 292, 81, 83, 293
17, 11, 88, 294, 85, 89, 295, 296, 86
18, 88, 7, 76, 294, 90, 77, 297, 295
19, 85, 294, 91, 12, 296, 298, 93, 87
20, 294, 76, 9, 91, 297, 78, 92, 298
21, 13, 97, 299, 94, 98, 300, 301, 95
22, 97, 5, 67, 299, 99, 68, 302, 300
23, 94, 299, 88, 11, 301, 303, 89, 96
24, 299, 67, 7, 88, 302, 69, 90, 303
25, 14, 103, 304, 100, 104, 305, 306, 101
26, 103, 2, 58, 304, 105, 59, 307, 305
27, 100, 304, 97, 13, 306, 308, 98, 102
28, 304, 58, 5, 97, 307, 60, 99, 308
29, 15, 109, 309, 106, 110, 310, 311, 107
30, 109, 1, 46, 309, 111, 47, 312, 310
31, 106, 309, 103, 14, 311, 313, 104, 108
32, 309, 46, 2, 103, 312, 48, 105, 313
33, 16, 115, 314, 112, 116, 315, 316, 113
34, 115, 15, 106, 314, 117, 107, 317, 315
35, 112, 314, 118, 17, 316, 318, 119, 114
36, 314, 106, 14, 118, 317, 108, 120, 318
37, 17, 118, 319, 121, 119, 320, 321, 122
38, 118, 14, 100, 319, 120, 101, 322, 320
39, 121, 319, 124, 18, 321, 323, 125, 123
40, 319, 100, 13, 124, 322, 102, 126, 323
41, 18, 124, 324, 127, 125, 325, 326, 128
42, 124, 13, 94, 324, 126, 95, 327, 325
43, 127, 324, 130, 19, 326, 328, 131, 129
44, 324, 94, 11, 130, 327, 96, 132, 328
45, 19, 130, 329, 133, 131, 330, 331, 134
46, 130, 11, 85, 329, 132, 86, 332, 330
47, 133, 329, 136, 20, 331, 333, 138, 135
48, 329, 85, 12, 136, 332, 87, 137, 333
49, 21, 142, 334, 139, 143, 335, 336, 140
50, 142, 19, 133, 334, 144, 134, 337, 335
51, 139, 334, 145, 22, 336, 338, 147, 141
52, 334, 133, 20, 145, 337, 135, 146, 338
53, 23, 151, 339, 148, 152, 340, 341, 149
54, 151, 18, 127, 339, 153, 128, 342, 340
55, 148, 339, 142, 21, 341, 343, 143, 150
56, 339, 127, 19, 142, 342, 129, 144, 343
57, 24, 157, 344, 154, 158, 345, 346, 155
58, 157, 17, 121, 344, 159, 122, 347, 345
59, 154, 344, 151, 23, 346, 348, 152, 156
60, 344, 121, 18, 151, 347, 123, 153, 348
61, 25, 163, 349, 160, 164, 350, 351, 161
62, 163, 16, 112, 349, 165, 113, 352, 350
63, 160, 349, 157, 24, 351, 353, 158, 162
64, 349, 112, 17, 157, 352, 114, 159, 353
65, 26, 169, 354, 166, 170, 355, 356, 167
66, 169, 25, 160, 354, 171, 161, 357, 355
67, 166, 354, 172, 27, 356, 358, 173, 168
68, 354, 160, 24, 172, 357, 162, 174, 358
69, 27, 172, 359, 175, 173, 360, 361, 176
70, 172, 24, 154, 359, 174, 155, 362, 360
71, 175, 359, 178, 28, 361, 363, 179, 177
72, 359, 154, 23, 178, 362, 156, 180, 363
73, 28, 178, 364, 181, 179, 365, 366, 182
74, 178, 23, 148, 364, 180, 149, 367, 365
75, 181, 364, 184, 29, 366, 368, 185, 183
76, 364, 148, 21, 184, 367, 150, 186, 368
77, 29, 184, 369, 187, 185, 370, 371, 188
78, 184, 21, 139, 369, 186, 140, 372, 370
79, 187, 369, 190, 30, 371, 373, 192, 189
80, 369, 139, 22, 190, 372, 141, 191, 373
81, 31, 196, 374, 193, 197, 375, 376, 194
82, 196, 29, 187, 374, 198, 188, 377, 375
83, 193, 374, 199, 32, 376, 378, 201, 195
84, 374, 187, 30, 199, 377, 189, 200, 378
85, 33, 205, 379, 202, 206, 380, 381, 203
86, 205, 28, 181, 379, 207, 182, 382, 380
87, 202, 379, 196, 31, 381, 383, 197, 204
88, 379, 181, 29, 196, 382, 183, 198, 383
89, 34, 211, 384, 208, 212, 385, 386, 209
90, 211, 27, 175, 384, 213, 176, 387, 385
91, 208, 384, 205, 33, 386, 388, 206, 210
92, 384, 175, 28, 205, 387, 177, 207, 388
93, 35, 217, 389, 214, 218, 390, 391, 215
94, 217, 26, 166, 389, 219, 167, 392, 390
95, 214, 389, 211, 34, 391, 393, 212, 216
96, 389, 166, 27, 211, 392, 168, 213, 393
97, 36, 223, 394, 220, 224, 395, 396, 221
98, 223, 35, 214, 394, 225, 215, 397, 395
99, 220, 394, 226, 37, 396, 398, 227, 222
100, 394, 214, 34, 226, 397, 216, 228, 398
101, 37, 226, 399, 229, 227, 400, 401, 230
102, 226, 34, 208, 399, 228, 209, 402, 400
103, 229, 399, 232, 38, 401, 403, 233, 231
104, 399, 208, 33, 232, 402, 210, 234, 403
105, 38, 232, 404, 235, 233, 405, 406, 236
106, 232, 33, 202, 404, 234, 203, 407, 405
107, 235, 404, 238, 39, 406, 408, 239, 237
108, 404, 202, 31, 238, 407, 204, 240, 408
109, 39, 238, 409, 241, 239, 410, 411, 242
110, 238, 31, 193, 409, 240, 194, 412, 410
111, 241, 409, 244, 40, 411, 413, 246, 243
112, 409, 193, 32, 244, 412, 195, 245, 413
113, 41, 247, 414, 253, 248, 415, 416, 255
114, 253, 414, 241, 40, 416, 417, 243, 254
115, 247, 42, 250, 414, 249, 251, 418, 415
116, 414, 250, 39, 241, 418, 252, 242, 417
117, 42, 256, 419, 250, 257, 420, 421, 251
118, 250, 419, 235, 39, 421, 422, 237, 252
119, 256, 43, 259, 419, 258, 260, 423, 420
120, 419, 259, 38, 235, 423, 261, 236, 422
121, 43, 262, 424, 259, 263, 425, 426, 260
122, 259, 424, 229, 38, 426, 427, 231, 261
123, 262, 44, 265, 424, 264, 266, 428, 425
124, 424, 265, 37, 229, 428, 267, 230, 427
125, 44, 268, 429, 265, 269, 430, 431, 266
126, 265, 429, 220, 37, 431, 432, 222, 267
127, 268, 45, 271, 429, 270, 272, 433, 430
128, 429, 271, 36, 220, 433, 273, 221, 432
**
** Node sets +++++++++++++++++++++++++++++++++++++++++++++++
**
*Nset, Nset=Internal_Selection-1_T_0
1, 3, 4, 6, 8, 10, 15, 16, 25, 26, 35, 36, 45, 49, 50, 51, 
52, 53, 54, 61, 62, 63, 70, 71, 72, 79, 80, 81, 109, 110, 111, 115, 
116, 117, 163, 164, 165, 169, 170, 171, 217, 218, 219, 223, 224, 225, 271, 272, 
273
*Nset, Nset=Internal_Selection-1_T_20
41, 42, 43, 44, 45, 247, 248, 249, 256, 257, 258, 262, 263, 264, 268, 269, 
270
*Nset, Nset=Internal_Selection-1_NODE_SELECTION-1
2, 5, 7, 9, 11, 12, 13, 14, 17, 18, 19, 20, 21, 22, 23, 24, 
27, 28, 29, 30, 31, 32, 33, 34, 37, 38, 39, 40
**
** Element sets ++++++++++++++++++++++++++++++++++++++++++++
**
*Elset, Elset=Internal_Selection-1_Solid_Section-1
Compound-1
**
** Surfaces ++++++++++++++++++++++++++++++++++++++++++++++++
**
**
** Physical constants ++++++++++++++++++++++++++++++++++++++
**
**
** Coordinate systems ++++++++++++++++++++++++++++++++++++++
**
**
** Materials +++++++++++++++++++++++++++++++++++++++++++++++
**
*Material, Name=Material-1
*Conductivity
1
**
** Sections ++++++++++++++++++++++++++++++++++++++++++++++++
**
*Solid section, Elset=Internal_Selection-1_Solid_Section-1, Material=Material-1
1
**
** Pre-tension sections ++++++++++++++++++++++++++++++++++++
**
**
** Constraints +++++++++++++++++++++++++++++++++++++++++++++
**
**
** Surface interactions ++++++++++++++++++++++++++++++++++++
**
**
** Contact pairs +++++++++++++++++++++++++++++++++++++++++++
**
**
** Amplitudes ++++++++++++++++++++++++++++++++++++++++++++++
**
**
** Initial conditions ++++++++++++++++++++++++++++++++++++++
**
**
** Steps +++++++++++++++++++++++++++++++++++++++++++++++++++
**
**
** Step-1 ++++++++++++++++++++++++++++++++++++++++++++++++++
**
*Step
*Heat transfer, Solver=Pardiso, Steady state
**
** Controls ++++++++++++++++++++++++++++++++++++++++++++++++
**
**
** Output frequency ++++++++++++++++++++++++++++++++++++++++
**
**
** Boundary conditions +++++++++++++++++++++++++++++++++++++
**
*Boundary, op=New
** Name: T_0
*Boundary
Internal_Selection-1_T_0, 11, 11, 0
** Name: T_20
*Boundary
Internal_Selection-1_T_20, 11, 11, 20
**
** Loads +++++++++++++++++++++++++++++++++++++++++++++++++++
**
*Cflux, op=New
**
** Defined fields ++++++++++++++++++++++++++++++++++++++++++
**
**
** History outputs +++++++++++++++++++++++++++++++++++++++++
**
*Node print, Nset=Internal_Selection-1_NODE_SELECTION-1, Global=Yes
NT
**
** Field outputs +++++++++++++++++++++++++++++++++++++++++++
**
*Node file
NT, RFL
*El file
HFL
**
** End step ++++++++++++++++++++++++++++++++++++++++++++++++
**
*End step
